NAME : amtsp.59434.tour
COMMENT : Length = 59434
COMMENT : Found by LKH [Keld Helsgaun] Tue Mar  4 23:52:10 2025
TYPE : TOUR
DIMENSION : 20
TOUR_SECTION
1
12
13
14
15
16
17
4
2
3
5
6
7
8
9
11
10
18
19
20
-1
EOF
